r = [
0,33,22,33,13,10,7,36,3,28,34,38,28,16,39,30,38,3,27,33,34,18,24,23,21,26,0
];
p = [
0,30,4,29,5,24,19,7,18,24,30,29,14,20,9,17,3,10,11,20,23,4,21,1,11,7,0
];
e = [
0,9,14,2,3,12,11,18,11,14,5,5,15,7,10,8,4,14,7,17,18,17,16,9,14,1,0
];
d = [
0,335,431,403,338,346,454,313,363,438,408,343,353,367,446,453,441,296,413,356,422,294,367,451,311,382,464
];
d_bar = [
0,350,433,418,341,358,464,317,372,450,423,358,360,377,451,462,443,301,419,366,434,296,378,452,317,386,464
];
w = [
0,0.6,7,0.133333333,1,1,1.1,4.5,1.222222222,1.166666667,0.333333333,0.333333333,2.142857143,0.7,2,0.888888889,2,2.8,1.166666667,1.7,1.5,8.5,1.454545455,9,2.333333333,0.25,0
];
